NAME sexual reproduction_srl_ilp
* Max problem is converted into Min one
ROWS
 N  OBJ
 L  constraint1_2770
 L  constraint1_2051
 L  constraint1_3561
 L  constraint1_7190
 L  constraint1_2170
 L  constraint1_1340
 L  constraint1_2670
 L  constraint1_5220
 L  constraint2_2770
 L  constraint2_2771
 L  constraint2_2772
 L  constraint2_2773
 L  constraint2_2050
 L  constraint2_2051
 L  constraint2_2052
 L  constraint2_2053
 L  constraint2_3560
 L  constraint2_3561
 L  constraint2_3562
 L  constraint2_3563
 L  constraint2_5520
 L  constraint2_5521
 L  constraint2_5522
 L  constraint2_5523
 L  constraint2_7190
 L  constraint2_7191
 L  constraint2_7192
 L  constraint2_7193
 L  constraint2_5960
 L  constraint2_5961
 L  constraint2_5962
 L  constraint2_5963
 L  constraint2_2170
 L  constraint2_2171
 L  constraint2_2172
 L  constraint2_2173
 L  constraint2_1340
 L  constraint2_1341
 L  constraint2_1342
 L  constraint2_1343
 L  constraint2_1020
 L  constraint2_1021
 L  constraint2_1022
 L  constraint2_1023
 L  constraint2_2670
 L  constraint2_2671
 L  constraint2_2672
 L  constraint2_2673
 L  constraint2_5220
 L  constraint2_5221
 L  constraint2_5222
 L  constraint2_5223
COLUMNS
    MARKER    'MARKER'                 'INTORG'
    Z_277_0_0  OBJ       -1.2890803194304159e-02
    Z_277_0_0  constraint1_2770  1
    Z_277_0_0  constraint2_2770  1
    Z_277_0_1  OBJ       -9.0999622233604738e-03
    Z_277_0_1  constraint1_2770  1
    Z_277_0_1  constraint2_2771  1
    Z_277_0_2  OBJ       -1.5239561578533627e-03
    Z_277_0_2  constraint1_2770  1
    Z_277_0_2  constraint2_2772  1
    Z_277_0_3  OBJ       -5.8640875857249231e-01
    Z_277_0_3  constraint1_2770  1
    Z_277_0_3  constraint2_2773  1
    Z_277_0_4  OBJ       -2.9007651985198973e-01
    Z_277_0_4  constraint1_2770  1
    Z_205_1_0  OBJ       -8.2563667607146425e-04
    Z_205_1_0  constraint1_2051  1
    Z_205_1_0  constraint2_2050  1
    Z_205_1_1  OBJ       -6.9395495201796966e-04
    Z_205_1_1  constraint1_2051  1
    Z_205_1_1  constraint2_2051  1
    Z_205_1_2  OBJ       -7.9177111328643202e-01
    Z_205_1_2  constraint1_2051  1
    Z_205_1_2  constraint2_2052  1
    Z_205_1_3  OBJ       -1.2703043402863187e-03
    Z_205_1_3  constraint1_2051  1
    Z_205_1_3  constraint2_2053  1
    Z_205_1_4  OBJ       -1.0543899074519220e-01
    Z_205_1_4  constraint1_2051  1
    Z_356_1_0  OBJ       -9.2972809574925824e-04
    Z_356_1_0  constraint1_3561  1
    Z_356_1_0  constraint2_3560  1
    Z_356_1_1  OBJ       -5.7071346031882075e-04
    Z_356_1_1  constraint1_3561  1
    Z_356_1_1  constraint2_3561  1
    Z_356_1_2  OBJ       -7.3261657095548272e-01
    Z_356_1_2  constraint1_3561  1
    Z_356_1_2  constraint2_3562  1
    Z_356_1_3  OBJ       -1.4253534959495933e-03
    Z_356_1_3  constraint1_3561  1
    Z_356_1_3  constraint2_3563  1
    Z_356_1_4  OBJ       -1.6445763399249971e-01
    Z_356_1_4  constraint1_3561  1
    Z_719_0_0  OBJ       -5.2517976014995792e-05
    Z_719_0_0  constraint1_7190  1
    Z_719_0_0  constraint2_7190  1
    Z_719_0_1  OBJ       -1.5551803233258316e-03
    Z_719_0_1  constraint1_7190  1
    Z_719_0_1  constraint2_7191  1
    Z_719_0_2  OBJ       -8.7409222075082516e-01
    Z_719_0_2  constraint1_7190  1
    Z_719_0_2  constraint2_7192  1
    Z_719_0_3  OBJ       -5.5745318508636222e-04
    Z_719_0_3  constraint1_7190  1
    Z_719_0_3  constraint2_7193  1
    Z_719_0_4  OBJ       -2.3742627764747740e-02
    Z_719_0_4  constraint1_7190  1
    Z_217_0_0  OBJ       -8.4650562585090634e-03
    Z_217_0_0  constraint1_2170  1
    Z_217_0_0  constraint2_2170  1
    Z_217_0_1  OBJ       -8.5804665189483112e-02
    Z_217_0_1  constraint1_2170  1
    Z_217_0_1  constraint2_2171  1
    Z_217_0_2  OBJ       -4.3969025345498361e-03
    Z_217_0_2  constraint1_2170  1
    Z_217_0_2  constraint2_2172  1
    Z_217_0_3  OBJ       -6.5459208819676751e-01
    Z_217_0_3  constraint1_2170  1
    Z_217_0_3  constraint2_2173  1
    Z_217_0_4  OBJ       -1.4674128782069043e-01
    Z_217_0_4  constraint1_2170  1
    Z_134_0_0  OBJ       -1.2716174948575825e-03
    Z_134_0_0  constraint1_1340  1
    Z_134_0_0  constraint2_1340  1
    Z_134_0_1  OBJ       -5.4179554755622313e-02
    Z_134_0_1  constraint1_1340  1
    Z_134_0_1  constraint2_1341  1
    Z_134_0_2  OBJ       -1.5446432654822246e-03
    Z_134_0_2  constraint1_1340  1
    Z_134_0_2  constraint2_1342  1
    Z_134_0_3  OBJ       -2.7772157149351589e-02
    Z_134_0_3  constraint1_1340  1
    Z_134_0_3  constraint2_1343  1
    Z_134_0_4  OBJ       -8.1523202733468625e-01
    Z_134_0_4  constraint1_1340  1
    Z_267_0_0  OBJ       -7.4114153213767671e-05
    Z_267_0_0  constraint1_2670  1
    Z_267_0_0  constraint2_2670  1
    Z_267_0_1  OBJ       -2.2835912216155217e-03
    Z_267_0_1  constraint1_2670  1
    Z_267_0_1  constraint2_2671  1
    Z_267_0_2  OBJ       -8.6097900885354184e-01
    Z_267_0_2  constraint1_2670  1
    Z_267_0_2  constraint2_2672  1
    Z_267_0_3  OBJ       -1.3708450718243814e-03
    Z_267_0_3  constraint1_2670  1
    Z_267_0_3  constraint2_2673  1
    Z_267_0_4  OBJ       -3.5292440699804535e-02
    Z_267_0_4  constraint1_2670  1
    Z_522_0_0  OBJ       -1.1532086291447490e-04
    Z_522_0_0  constraint1_5220  1
    Z_522_0_0  constraint2_5220  1
    Z_522_0_1  OBJ       -3.7794325414632628e-03
    Z_522_0_1  constraint1_5220  1
    Z_522_0_1  constraint2_5221  1
    Z_522_0_2  OBJ       -8.6282122955918539e-01
    Z_522_0_2  constraint1_5220  1
    Z_522_0_2  constraint2_5222  1
    Z_522_0_3  OBJ       -4.1736231321243749e-04
    Z_522_0_3  constraint1_5220  1
    Z_522_0_3  constraint2_5223  1
    Z_522_0_4  OBJ       -3.2866654723224413e-02
    Z_522_0_4  constraint1_5220  1
    MARKER    'MARKER'                 'INTEND'
RHS
    RHS1      constraint1_2770  1
    RHS1      constraint1_2051  1
    RHS1      constraint1_3561  1
    RHS1      constraint1_7190  1
    RHS1      constraint1_2170  1
    RHS1      constraint1_1340  1
    RHS1      constraint1_2670  1
    RHS1      constraint1_5220  1
    RHS1      constraint2_2770  1
    RHS1      constraint2_2771  1
    RHS1      constraint2_2772  1
    RHS1      constraint2_2773  1
    RHS1      constraint2_2050  1
    RHS1      constraint2_2051  1
    RHS1      constraint2_2052  1
    RHS1      constraint2_2053  1
    RHS1      constraint2_3560  1
    RHS1      constraint2_3561  1
    RHS1      constraint2_3562  1
    RHS1      constraint2_3563  1
    RHS1      constraint2_5520  1
    RHS1      constraint2_5521  1
    RHS1      constraint2_5522  1
    RHS1      constraint2_5523  1
    RHS1      constraint2_7190  1
    RHS1      constraint2_7191  1
    RHS1      constraint2_7192  1
    RHS1      constraint2_7193  1
    RHS1      constraint2_5960  1
    RHS1      constraint2_5961  1
    RHS1      constraint2_5962  1
    RHS1      constraint2_5963  1
    RHS1      constraint2_2170  1
    RHS1      constraint2_2171  1
    RHS1      constraint2_2172  1
    RHS1      constraint2_2173  1
    RHS1      constraint2_1340  1
    RHS1      constraint2_1341  1
    RHS1      constraint2_1342  1
    RHS1      constraint2_1343  1
    RHS1      constraint2_1020  1
    RHS1      constraint2_1021  1
    RHS1      constraint2_1022  1
    RHS1      constraint2_1023  1
    RHS1      constraint2_2670  1
    RHS1      constraint2_2671  1
    RHS1      constraint2_2672  1
    RHS1      constraint2_2673  1
    RHS1      constraint2_5220  1
    RHS1      constraint2_5221  1
    RHS1      constraint2_5222  1
    RHS1      constraint2_5223  1
BOUNDS
 UP BND1      Z_277_0_0  1
 UP BND1      Z_277_0_1  1
 UP BND1      Z_277_0_2  1
 UP BND1      Z_277_0_3  1
 UP BND1      Z_277_0_4  1
 UP BND1      Z_205_1_0  1
 UP BND1      Z_205_1_1  1
 UP BND1      Z_205_1_2  1
 UP BND1      Z_205_1_3  1
 UP BND1      Z_205_1_4  1
 UP BND1      Z_356_1_0  1
 UP BND1      Z_356_1_1  1
 UP BND1      Z_356_1_2  1
 UP BND1      Z_356_1_3  1
 UP BND1      Z_356_1_4  1
 UP BND1      Z_719_0_0  1
 UP BND1      Z_719_0_1  1
 UP BND1      Z_719_0_2  1
 UP BND1      Z_719_0_3  1
 UP BND1      Z_719_0_4  1
 UP BND1      Z_217_0_0  1
 UP BND1      Z_217_0_1  1
 UP BND1      Z_217_0_2  1
 UP BND1      Z_217_0_3  1
 UP BND1      Z_217_0_4  1
 UP BND1      Z_134_0_0  1
 UP BND1      Z_134_0_1  1
 UP BND1      Z_134_0_2  1
 UP BND1      Z_134_0_3  1
 UP BND1      Z_134_0_4  1
 UP BND1      Z_267_0_0  1
 UP BND1      Z_267_0_1  1
 UP BND1      Z_267_0_2  1
 UP BND1      Z_267_0_3  1
 UP BND1      Z_267_0_4  1
 UP BND1      Z_522_0_0  1
 UP BND1      Z_522_0_1  1
 UP BND1      Z_522_0_2  1
 UP BND1      Z_522_0_3  1
 UP BND1      Z_522_0_4  1
ENDATA
